c Sudoku solution
p cnf 729 0
155 0
167 0
173 0
196 0
217 0
235 0
263 0
278 0
342 0
377 0
411 0
548 0
569 0
619 0
652 0
685 0
395 0
734 0
741 0
832 0
866 0
871 0
888 0
953 0
962 0
976 0
775 0
768 0
358 0
465 0
674 0
572 0
479 0
422 0
661 0
112 0
918 0
251 0
364 0
149 0
246 0
514 0
525 0
815 0
945 0
591 0
997 0
984 0
181 0
389 0
138 0
124 0
229 0
628 0
498 0
636 0
921 0
939 0
331 0
282 0
294 0
792 0
783 0
899 0
716 0
727 0
823 0
759 0
313 0
326 0
693 0
533 0
437 0
443 0
647 0
454 0
556 0
486 0
587 0
844 0
857 0
